p cnf 10 50
-8 3 -7 0
8 7 -4 0
1 7 -5 0
-4 -3 5 0
7 2 9 0
-3 9 -7 0
-8 -3 10 0
-1 -3 -7 0
-6 -2 -3 0
-6 9 -3 0
-5 -2 8 0
-5 -10 -4 0
6 8 3 0
-3 -4 -1 0
-6 4 -5 0
5 7 2 0
-8 6 -7 0
5 8 10 0
-8 -1 6 0
-3 1 9 0
4 6 1 0
-4 2 7 0
-2 4 -8 0
-5 -4 8 0
-7 -10 -3 0
-1 -6 -2 0
5 2 -4 0
7 -6 -5 0
-5 4 9 0
-5 -9 -3 0
9 -4 -1 0
-3 6 5 0
1 7 6 0
6 8 4 0
1 6 5 0
-8 3 5 0
9 3 4 0
-1 -6 10 0
-7 -9 3 0
9 -8 4 0
9 3 10 0
7 -2 -6 0
-2 9 4 0
-7 5 3 0
-8 -4 -1 0
-7 9 -1 0
-10 -3 2 0
-9 -6 4 0
3 7 6 0
-3 10 -4 0